750
400 400
1 319 347
2 319 613
3 318 96
4 318 67
5 317 934
6 317 214
7 316 19
8 316 1000
9 316 706
10 315 122
11 314 155
12 314 757
13 313 107
14 313 31
15 312 254
16 311 282
17 311 310
18 311 619
19 311 249
20 311 16
21 310 846
22 310 262
23 310 600
24 308 451
25 308 670
26 308 321
27 307 375
28 307 264
29 307 883
30 307 377
31 305 528
32 305 111
33 305 667
34 305 489
35 304 746
36 304 909
37 304 50
38 304 252
39 303 793
40 300 645
41 299 792
42 299 671
43 299 199
44 299 582
45 298 144
46 298 549
47 298 922
48 298 88
49 297 127
50 296 295
51 295 262
52 295 474
53 294 823
54 293 950
55 293 553
56 293 123
57 293 890
58 293 106
59 292 935
60 292 455
61 292 73
62 292 556
63 291 819
64 291 439
65 291 682
66 291 144
67 290 442
68 290 295
69 290 557
70 289 550
71 289 534
72 288 677
73 288 683
74 287 466
75 287 687
76 287 676
77 287 257
78 287 644
79 286 714
80 286 168
81 286 181
82 285 56
83 285 822
84 284 173
85 284 476
86 283 2
87 283 909
88 283 849
89 283 215
90 282 873
91 281 208
92 281 58
93 280 729
94 280 573
95 280 754
96 280 499
97 280 130
98 279 314
99 279 8
100 278 236
101 278 989
102 278 274
103 277 800
104 277 100
105 277 713
106 277 165
107 276 399
108 275 478
109 275 368
110 275 523
111 275 673
112 275 353
113 275 298
114 274 124
115 274 760
116 273 557
117 273 320
118 273 474
119 272 385
120 272 287
121 272 764
122 269 607
123 269 511
124 269 81
125 268 104
126 268 332
127 268 896
128 267 699
129 267 449
130 266 170
131 266 111
132 265 697
133 265 172
134 265 233
135 264 112
136 264 408
137 264 644
138 264 325
139 263 568
140 263 435
141 263 262
142 262 727
143 261 363
144 260 47
145 259 727
146 259 425
147 259 163
148 259 484
149 258 723
150 258 717
151 258 386
152 256 51
153 255 805
154 255 564
155 254 406
156 254 596
157 254 701
158 253 116
159 253 451
160 253 759
161 253 298
162 252 713
163 252 364
164 252 695
165 251 126
166 250 982
167 249 968
168 249 139
169 248 105
170 248 364
171 247 905
172 246 365
173 245 200
174 245 676
175 245 451
176 245 4
177 245 0
178 244 83
179 243 815
180 243 551
181 243 62
182 243 350
183 243 571
184 243 28
185 243 445
186 242 411
187 242 73
188 241 792
189 241 20
190 241 610
191 240 904
192 240 825
193 240 328
194 240 15
195 240 261
196 239 675
197 239 801
198 238 229
199 238 685
200 237 560
201 237 872
202 236 440
203 236 201
204 236 512
205 235 155
206 235 125
207 234 493
208 234 806
209 234 462
210 233 858
211 232 695
212 232 38
213 232 113
214 232 166
215 232 472
216 231 501
217 231 596
218 231 972
219 231 821
220 231 547
221 230 254
222 230 641
223 230 259
224 229 955
225 229 216
226 229 160
227 228 1000
228 228 786
229 228 423
230 228 68
231 228 134
232 227 959
233 227 233
234 227 327
235 227 937
236 227 594
237 226 277
238 226 444
239 225 222
240 225 495
241 224 124
242 224 561
243 223 389
244 223 27
245 223 443
246 222 110
247 222 482
248 220 483
249 220 861
250 220 640
251 220 535
252 219 786
253 219 350
254 219 366
255 219 701
256 219 607
257 219 599
258 218 546
259 218 107
260 218 656
261 218 146
262 218 424
263 218 251
264 217 783
265 217 584
266 217 615
267 217 941
268 217 490
269 216 397
270 216 563
271 216 818
272 215 103
273 215 923
274 214 679
275 214 734
276 214 322
277 213 183
278 213 155
279 213 476
280 213 694
281 213 570
282 212 708
283 212 811
284 212 255
285 212 369
286 211 276
287 211 709
288 210 843
289 210 830
290 210 85
291 209 211
292 209 596
293 209 75
294 208 246
295 208 13
296 208 297
297 208 426
298 207 101
299 207 483
300 207 672
301 206 974
302 206 851
303 206 437
304 206 587
305 205 651
306 205 984
307 205 55
308 205 203
309 204 498
310 203 719
311 203 899
312 202 66
313 202 224
314 202 902
315 202 527
316 202 492
317 202 140
318 201 324
319 201 257
320 201 304
321 200 973
322 200 763
323 198 734
324 198 150
325 197 417
326 197 105
327 196 714
328 196 430
329 195 906
330 195 943
331 195 600
332 195 920
333 194 18
334 193 619
335 193 185
336 192 6
337 192 457
338 191 499
339 191 556
340 191 701
341 190 660
342 190 266
343 189 622
344 189 992
345 189 826
346 189 817
347 188 360
348 187 681
349 187 561
350 187 194
351 186 391
352 186 657
353 186 685
354 186 753
355 185 318
356 185 672
357 185 555
358 184 641
359 184 74
360 184 458
361 184 910
362 183 573
363 182 301
364 182 63
365 182 9
366 181 265
367 181 27
368 181 799
369 181 749
370 179 106
371 179 781
372 179 64
373 178 168
374 178 850
375 178 823
376 178 836
377 178 154
378 177 43
379 177 947
380 177 661
381 176 33
382 176 55
383 175 654
384 174 304
385 174 802
386 174 484
387 174 63
388 173 399
389 172 813
390 172 928
391 170 751
392 170 200
393 170 188
394 169 475
395 169 454
396 169 942
397 169 865
398 168 757
399 168 760
400 168 596
401 168 543
402 167 800
403 167 904
404 167 472
405 167 489
406 167 783
407 167 877
408 166 920
409 165 730
410 165 393
411 165 554
412 165 594
413 164 66
414 164 571
415 163 604
416 163 997
417 162 987
418 161 810
419 161 848
420 160 305
421 160 661
422 160 444
423 158 646
424 158 157
425 158 878
426 157 565
427 157 784
428 157 764
429 157 558
430 156 931
431 156 151
432 155 105
433 155 657
434 155 62
435 155 441
436 154 535
437 154 931
438 153 378
439 153 319
440 152 59
441 152 611
442 151 914
443 151 337
444 151 636
445 151 233
446 150 745
447 149 249
448 149 224
449 148 88
450 147 61
451 147 476
452 146 582
453 146 102
454 146 498
455 145 336
456 145 311
457 142 587
458 142 786
459 141 171
460 141 713
461 140 986
462 140 324
463 140 729
464 139 798
465 139 708
466 138 98
467 138 916
468 138 711
469 138 792
470 138 821
471 138 471
472 137 875
473 136 926
474 136 868
475 136 789
476 135 390
477 135 781
478 135 868
479 135 928
480 134 495
481 133 597
482 133 173
483 132 335
484 132 0
485 132 150
486 131 616
487 131 960
488 131 691
489 130 578
490 130 606
491 130 668
492 130 933
493 130 149
494 129 99
495 129 107
496 129 362
497 128 855
498 128 693
499 127 617
500 127 867
501 127 297
502 127 692
503 126 464
504 126 614
505 126 373
506 125 533
507 125 411
508 125 470
509 124 536
510 124 440
511 123 461
512 123 59
513 123 200
514 123 746
515 122 399
516 122 119
517 121 891
518 121 968
519 121 310
520 121 335
521 121 72
522 120 616
523 120 635
524 120 553
525 120 358
526 119 458
527 119 329
528 118 658
529 118 708
530 118 652
531 118 905
532 117 841
533 117 641
534 117 498
535 117 927
536 117 634
537 116 626
538 116 540
539 115 899
540 115 498
541 114 80
542 114 355
543 114 315
544 113 992
545 113 844
546 113 597
547 113 943
548 112 100
549 112 255
550 112 525
551 112 131
552 112 526
553 111 131
554 111 632
555 109 912
556 109 755
557 109 114
558 109 712
559 109 523
560 108 301
561 108 880
562 107 977
563 107 483
564 107 812
565 107 971
566 107 174
567 107 631
568 107 941
569 106 880
570 106 55
571 106 113
572 106 243
573 105 69
574 104 58
575 104 852
576 103 291
577 103 564
578 103 436
579 102 160
580 102 942
581 101 936
582 101 727
583 101 969
584 101 171
585 100 42
586 100 480
587 100 891
588 100 759
589 99 801
590 99 430
591 99 324
592 99 448
593 98 660
594 98 546
595 97 116
596 96 948
597 96 818
598 96 888
599 95 512
600 95 915
601 94 347
602 94 589
603 94 963
604 93 527
605 92 595
606 92 948
607 91 899
608 90 949
609 90 265
610 90 80
611 89 394
612 89 562
613 88 970
614 88 649
615 88 731
616 88 962
617 87 165
618 87 504
619 87 970
620 87 320
621 87 158
622 87 681
623 87 949
624 86 934
625 86 400
626 86 145
627 85 726
628 85 672
629 85 440
630 85 384
631 85 91
632 85 783
633 85 978
634 85 471
635 85 427
636 84 65
637 84 41
638 84 970
639 83 281
640 82 93
641 81 277
642 81 871
643 81 879
644 81 133
645 81 896
646 80 299
647 80 725
648 80 199
649 80 513
650 80 294
651 79 277
652 79 122
653 79 545
654 79 57
655 78 163
656 77 799
657 77 791
658 77 595
659 76 971
660 76 937
661 75 327
662 75 609
663 74 189
664 74 603
665 74 949
666 74 324
667 74 740
668 74 486
669 74 576
670 74 349
671 73 544
672 73 761
673 72 342
674 72 504
675 72 88
676 72 696
677 71 662
678 71 973
679 70 736
680 69 58
681 69 980
682 68 294
683 68 190
684 68 129
685 68 55
686 68 161
687 68 586
688 67 101
689 67 937
690 66 534
691 66 632
692 65 758
693 65 80
694 65 526
695 65 295
696 65 692
697 64 836
698 63 867
699 63 273
700 62 598
701 61 455
702 61 205
703 61 577
704 60 626
705 60 482
706 59 564
707 59 521
708 58 496
709 57 363
710 57 399
711 57 324
712 56 447
713 56 568
714 55 817
715 54 594
716 54 589
717 53 940
718 53 476
719 53 738
720 52 931
721 52 355
722 51 234
723 51 206
724 51 890
725 51 483
726 51 393
727 51 876
728 50 761
729 50 554
730 49 479
731 49 551
732 49 837
733 48 799
734 46 607
735 46 700
736 46 890
737 45 383
738 45 629
739 45 999
740 44 985
741 44 632
742 44 796
743 44 657
744 44 662
745 43 140
746 42 565
747 42 324
748 42 685
749 41 341
750 40 776
